26 4
20 44 99 81 75 57 55 27 88 80 27 75 31 93 100 97 62 55 14 76 15 28 36 71 22 62
70 93 64 60 25 58 98 67 57 15 91 78 12 96 44 73 21 31 13 72 45 41 22 29 81 84
76 20 47 91 90 94 10 38 61 54 52 42 72 97 83 84 85 71 76 14 19 80 41 16 94 20
51 48 84 28 83 65 88 77 35 10 12 19 53 54 24 47 27 59 78 14 67 62 87 22 19 63
